Problem:    
Rows:       354
Columns:    129 (110 integer, 110 binary)
Non-zeros:  1125
Status:     INTEGER OPTIMAL
Objective:  value = 5.4828 (MINimum)

   No.   Row name        Activity     Lower bound   Upper bound
------ ------------    ------------- ------------- -------------
     1 r.5                         1             1             = 
     2 r.6                    5.4828             0               
     3 r.7                    5.4828       -998.02               
     4 r.8                   1005.48             0               
     5 r.9                  -994.517      -998.782               
     6 r.10                  1005.48             0               
     7 r.11                 -996.788      -998.593               
     8 r.12                   5.4828             0               
     9 r.13                   5.4828      -998.783               
    10 r.14                  1005.48             0               
    11 r.15                 -998.195      -998.469               
    12 r.16                   5.4828             0               
    13 r.17                   1.8048      -998.753               
    14 r.18                  1005.48             0               
    15 r.19                 -995.334      -998.545               
    16 r.20                   5.4828             0               
    17 r.21                   5.4828       -998.79               
    18 r.22                   5.4828             0               
    19 r.23                   3.2115       -998.47               
    20 r.24                  1005.48             0               
    21 r.25                 -997.006      -998.759               
    22 r.26                   5.4828             0               
    23 r.27                   1.7526      -997.765               
    24 r.28                  1005.48             0               
    25 r.29                 -998.247      -998.521               
    26 r.30                  1005.48             0               
    27 r.31                 -994.517      -999.184               
    28 r.32                   5.4828             0               
    29 r.33                   5.4828      -998.787               
    30 r.34                   5.4828             0               
    31 r.35                 -997.763      -998.037               
    32 r.36                  1005.48             0               
    33 r.37                 -995.735       -998.79               
    34 r.38                  1005.48             0               
    35 r.39                 -999.726      -999.726               
    36 r.40                   5.4828             0               
    37 r.41                    0.274      -998.766               
    38 r.42                        1             1             = 
    39 r.43                        1             1             = 
    40 r.44                        1             1             = 
    41 r.45                        1             1             = 
    42 r.46                        1             1             = 
    43 r.47                        1             1             = 
    44 r.48                        1             1             = 
    45 r.49                        1             1             = 
    46 r.50                        1             1             = 
    47 r.51                     1001             2               
    48 r.52                    -1001         -1001               
    49 r.53                  1997.73      -998.593               
    50 r.54                     1001             2               
    51 r.55                    -1001         -1001               
    52 r.56                     2000      -998.783               
    53 r.57                     1001             2               
    54 r.58                    -1001         -1001               
    55 r.59                  1996.32      -998.469               
    56 r.60                     1001             2               
    57 r.61                    -1001         -1001               
    58 r.62                  1996.32      -998.753               
    59 r.63                     1001             2               
    60 r.64                    -1001         -1001               
    61 r.65                  1999.18      -998.545               
    62 r.66                     1001             2               
    63 r.67                    -1001         -1001               
    64 r.68                     2000       -998.79               
    65 r.69                     1000             2               
    66 r.70                    -1000         -1001               
    67 r.71                  1997.73       -998.47               
    68 r.72                        2             2               
    69 r.73                       -2         -1001               
    70 r.74                  -2.4892      -998.759               
    71 r.75                     1000             2               
    72 r.76                    -1000         -1001               
    73 r.77                  1996.27      -997.765               
    74 r.78                        2             2               
    75 r.79                       -2         -1001               
    76 r.80                  -3.7302      -998.521               
    77 r.81                     1001             2               
    78 r.82                    -1001         -1001               
    79 r.83                     2000      -999.184               
    80 r.84                     1001             2               
    81 r.85                    -1001         -1001               
    82 r.86                     2000      -998.787               
    83 r.87                     1000             2               
    84 r.88                    -1000         -1001               
    85 r.89                  996.754      -998.037               
    86 r.90                        2             2               
    87 r.91                       -2         -1001               
    88 r.92                  -1.2181       -998.79               
    89 r.93                   5.2088       -998.02               
    90 r.94                 -994.791      -998.782               
    91 r.95                   5.2088       -998.02               
    92 r.96                 -994.791      -998.782               
    93 r.97                     1001             2               
    94 r.98                    -1001         -1001               
    95 r.99                  2002.27          1.98               
    96 r.100                    1001             2               
    97 r.101                   -1001         -1001               
    98 r.102                    2000        1.2181               
    99 r.103                -998.593      -998.593               
   100 r.104                   3.678      -998.783               
   101 r.105                -998.593      -998.593               
   102 r.106                   3.678      -998.783               
   103 r.107                       2             2               
   104 r.108                      -2         -1001               
   105 r.109                -998.545      -998.545               
   106 r.110                    1000             2               
   107 r.111                   -1000         -1001               
   108 r.112                    2000       -998.79               
   109 r.113                    1001             2               
   110 r.114                   -1001         -1001               
   111 r.115                    2000       -998.47               
   112 r.116                    1001             2               
   113 r.117                   -1001         -1001               
   114 r.118                 1997.51      -998.759               
   115 r.119                    1001             2               
   116 r.120                   -1001         -1001               
   117 r.121                 1998.54      -997.765               
   118 r.122                    1001             2               
   119 r.123                   -1001         -1001               
   120 r.124                 1996.27      -998.521               
   121 r.125                       2             2               
   122 r.126                      -2         -1001               
   123 r.127                -997.729      -999.184               
   124 r.128                    1000             2               
   125 r.129                   -1000         -1001               
   126 r.130                    2000      -998.787               
   127 r.131                    1001             2               
   128 r.132                   -1001         -1001               
   129 r.133                 999.026      -998.037               
   130 r.134                    1001             2               
   131 r.135                   -1001         -1001               
   132 r.136                 1998.78       -998.79               
   133 r.137                    1001             2               
   134 r.138                   -1001         -1001               
   135 r.139                 2003.68          1.98               
   136 r.140                    1001             2               
   137 r.141                   -1001         -1001               
   138 r.142                 2003.68        1.2181               
   139 r.143                       2             2               
   140 r.144                      -2         -1001               
   141 r.145                -997.138      -998.545               
   142 r.146                    1000             2               
   143 r.147                   -1000         -1001               
   144 r.148                 2003.68       -998.79               
   145 r.149                    1001             2               
   146 r.150                   -1001         -1001               
   147 r.151                 2001.41       -998.47               
   148 r.152                    1001             2               
   149 r.153                   -1001         -1001               
   150 r.154                 2001.19      -998.759               
   151 r.155                    1001             2               
   152 r.156                   -1001         -1001               
   153 r.157                 1999.95      -997.765               
   154 r.158                    1001             2               
   155 r.159                   -1001         -1001               
   156 r.160                 1999.95      -998.521               
   157 r.161                       2             2               
   158 r.162                      -2         -1001               
   159 r.163                -996.322      -999.184               
   160 r.164                    1000             2               
   161 r.165                   -1000         -1001               
   162 r.166                 2003.68      -998.787               
   163 r.167                    1001             2               
   164 r.168                   -1001         -1001               
   165 r.169                 1000.43      -998.037               
   166 r.170                    1001             2               
   167 r.171                   -1001         -1001               
   168 r.172                 2002.46       -998.79               
   169 r.173                -998.469      -998.469               
   170 r.174                  1.5308      -998.753               
   171 r.175                -998.469      -998.469               
   172 r.176                  1.5308      -998.753               
   173 r.177                    1001             2               
   174 r.178                   -1001         -1001               
   175 r.179                 2000.82          1.98               
   176 r.180                    1001             2               
   177 r.181                   -1001         -1001               
   178 r.182                    2000        1.2181               
   179 r.183                       2             2               
   180 r.184                      -2         -1001               
   181 r.185                 998.545        1.4067               
   182 r.186                    1000             2               
   183 r.187                   -1000         -1001               
   184 r.188                    2000         1.217               
   185 r.189                       2             2               
   186 r.190                      -2         -1001               
   187 r.191                 997.138        1.5308               
   188 r.192                    1000             2               
   189 r.193                   -1000         -1001               
   190 r.194                 1996.32        1.2468               
   191 r.195                -998.545      -998.545               
   192 r.196                  2.2713       -998.79               
   193 r.197                -998.327      -998.545               
   194 r.198                  2.4892       -998.79               
   195 r.199                       2             2               
   196 r.200                      -2         -1001               
   197 r.201                -999.184      -999.184               
   198 r.202                    1000             2               
   199 r.203                   -1000         -1001               
   200 r.204                    2000      -998.787               
   201 r.205                    1001             2               
   202 r.206                   -1001         -1001               
   203 r.207                 997.571      -998.037               
   204 r.208                    1001             2               
   205 r.209                   -1001         -1001               
   206 r.210                 1998.78       -998.79               
   207 r.211                    1000             2               
   208 r.212                   -1000         -1001               
   209 r.213                 2002.27          1.98               
   210 r.214                       2             2               
   211 r.215                      -2         -1001               
   212 r.216                  2.4892        1.2181               
   213 r.217                    1001             2               
   214 r.218                   -1001         -1001               
   215 r.219                    2000        1.4067               
   216 r.220                    1001             2               
   217 r.221                   -1001         -1001               
   218 r.222                 2002.49         1.217               
   219 r.223                    1001             2               
   220 r.224                   -1001         -1001               
   221 r.225                 1998.59        1.5308               
   222 r.226                    1001             2               
   223 r.227                   -1001         -1001               
   224 r.228                 1998.81        1.2468               
   225 r.229                  1.4589       -998.47               
   226 r.230                -998.759      -998.759               
   227 r.231                  1.4589       -998.47               
   228 r.232                -998.759      -998.759               
   229 r.233                    1001             2               
   230 r.234                   -1001         -1001               
   231 r.235                 2002.27      -999.184               
   232 r.236                    1001             2               
   233 r.237                   -1001         -1001               
   234 r.238                 2002.49      -998.787               
   235 r.239                    1000             2               
   236 r.240                   -1000         -1001               
   237 r.241                 999.026      -998.037               
   238 r.242                       2             2               
   239 r.243                      -2         -1001               
   240 r.244                -998.729       -998.79               
   241 r.245                    1000             2               
   242 r.246                   -1000         -1001               
   243 r.247                 2003.73          1.98               
   244 r.248                       2             2               
   245 r.249                      -2         -1001               
   246 r.250                  3.7302        1.2181               
   247 r.251                    1001             2               
   248 r.252                   -1001         -1001               
   249 r.253                 2001.46        1.4067               
   250 r.254                    1001             2               
   251 r.255                   -1001         -1001               
   252 r.256                 2003.73         1.217               
   253 r.257                    1001             2               
   254 r.258                   -1001         -1001               
   255 r.259                 2000.05        1.5308               
   256 r.260                    1001             2               
   257 r.261                   -1001         -1001               
   258 r.262                 2000.05        1.2468               
   259 r.263                    1001             2               
   260 r.264                   -1001         -1001               
   261 r.265                 2003.73      -999.184               
   262 r.266                    1001             2               
   263 r.267                   -1001         -1001               
   264 r.268                 2003.73      -998.787               
   265 r.269                    1000             2               
   266 r.270                   -1000         -1001               
   267 r.271                 1000.48      -998.037               
   268 r.272                       2             2               
   269 r.273                      -2         -1001               
   270 r.274                -997.488       -998.79               
   271 r.275                  1.4786      -997.765               
   272 r.276                -998.521      -998.521               
   273 r.277                  1.4786      -997.765               
   274 r.278                -998.521      -998.521               
   275 r.279                    1001             2               
   276 r.280                   -1001         -1001               
   277 r.281                    2000          1.98               
   278 r.282                    1001             2               
   279 r.283                   -1001         -1001               
   280 r.284                    2000        1.2181               
   281 r.285                       2             2               
   282 r.286                      -2         -1001               
   283 r.287                 997.729        1.4067               
   284 r.288                    1000             2               
   285 r.289                   -1000         -1001               
   286 r.290                    2000         1.217               
   287 r.291                       2             2               
   288 r.292                      -2         -1001               
   289 r.293                 996.322        1.5308               
   290 r.294                    1000             2               
   291 r.295                   -1000         -1001               
   292 r.296                 1996.32        1.2468               
   293 r.297                       2             2               
   294 r.298                      -2         -1001               
   295 r.299                 999.184        1.4549               
   296 r.300                    1000             2               
   297 r.301                   -1000         -1001               
   298 r.302                    2000        1.2102               
   299 r.303                    1001             2               
   300 r.304                   -1001         -1001               
   301 r.305                 1997.73        1.5303               
   302 r.306                    1001             2               
   303 r.307                   -1001         -1001               
   304 r.308                 1997.51         1.241               
   305 r.309                    1001             2               
   306 r.310                   -1001         -1001               
   307 r.311                 1996.27        2.2345               
   308 r.312                    1001             2               
   309 r.313                   -1001         -1001               
   310 r.314                 1996.27        1.4786               
   311 r.315                  3.2457      -999.184               
   312 r.316                 1003.25      -998.787               
   313 r.317                -998.782      -999.184               
   314 r.318                  1.2181      -998.787               
   315 r.319                    1000             2               
   316 r.320                   -1000         -1001               
   317 r.321                 3003.25          1.98               
   318 r.322                       2             2               
   319 r.323                      -2         -1001               
   320 r.324                  1.2181        1.2181               
   321 r.325                    1001             2               
   322 r.326                   -1001         -1001               
   323 r.327                 3000.97        1.4067               
   324 r.328                    1001             2               
   325 r.329                   -1001         -1001               
   326 r.330                 2001.22         1.217               
   327 r.331                    1001             2               
   328 r.332                   -1001         -1001               
   329 r.333                 2999.57        1.5308               
   330 r.334                    1001             2               
   331 r.335                   -1001         -1001               
   332 r.336                 1997.54        1.2468               
   333 r.337                    1001             2               
   334 r.338                   -1001         -1001               
   335 r.339                 3002.43        1.4549               
   336 r.340                    1001             2               
   337 r.341                   -1001         -1001               
   338 r.342                 2001.22        1.2102               
   339 r.343                    1000             2               
   340 r.344                   -1000         -1001               
   341 r.345                 3000.97        1.5303               
   342 r.346                       2             2               
   343 r.347                      -2         -1001               
   344 r.348                 998.729         1.241               
   345 r.349                    1000             2               
   346 r.350                   -1000         -1001               
   347 r.351                 2999.52        2.2345               
   348 r.352                       2             2               
   349 r.353                      -2         -1001               
   350 r.354                 997.488        1.4786               
   351 r.355                -998.037      -998.037               
   352 r.356                -996.009       -998.79               
   353 r.357                -998.037      -998.037               
   354 r.358                -996.009       -998.79               

   No. Column name       Activity     Lower bound   Upper bound
------ ------------    ------------- ------------- -------------
     1 tt                     5.4828             0               
     2 s_1_9        *              1             0             1 
     3 s_1_1        *              0             0             1 
     4 t_1_1                       0             0               
     5 s_2_1        *              1             0             1 
     6 t_2_1                       0             0               
     7 s_1_2        *              1             0             1 
     8 t_1_2                  2.2713             0               
     9 s_2_2        *              0             0             1 
    10 t_2_2                       0             0               
    11 s_1_3        *              1             0             1 
    12 t_1_3                   3.678             0               
    13 s_2_3        *              0             0             1 
    14 t_2_3                   3.678             0               
    15 s_1_4        *              1             0             1 
    16 t_1_4                  0.8164             0               
    17 s_2_4        *              0             0             1 
    18 t_2_4                       0             0               
    19 s_1_5        *              0             0             1 
    20 t_1_5                  2.2713             0               
    21 s_2_5        *              1             0             1 
    22 t_2_5                  2.4892             0               
    23 s_1_6        *              0             0             1 
    24 t_1_6                  3.7302             0               
    25 s_2_6        *              1             0             1 
    26 t_2_6                  3.7302             0               
    27 s_1_7        *              1             0             1 
    28 t_1_7                       0             0               
    29 s_2_7        *              0             0             1 
    30 t_2_7                       0             0               
    31 s_1_8        *              0             0             1 
    32 t_1_8                 1003.25             0               
    33 s_2_8        *              1             0             1 
    34 t_2_8                  1.2181             0               
    35 t_1_9                  5.2088             0               
    36 s_2_9        *              0             0             1 
    37 t_2_9                  5.2088             0               
    38 r_1_1_2      *              1             0             1 
    39 u_1_1_2      *              0             0             1 
    40 r_2_1_2      *              1             0             1 
    41 u_2_1_2      *              0             0             1 
    42 r_1_1_3      *              1             0             1 
    43 u_1_1_3      *              0             0             1 
    44 r_2_1_3      *              1             0             1 
    45 u_2_1_3      *              0             0             1 
    46 r_1_1_4      *              1             0             1 
    47 u_1_1_4      *              0             0             1 
    48 r_2_1_4      *              1             0             1 
    49 u_2_1_4      *              0             0             1 
    50 r_1_1_5      *              1             0             1 
    51 u_1_1_5      *              0             0             1 
    52 r_2_1_5      *              0             0             1 
    53 u_2_1_5      *              0             0             1 
    54 r_1_1_6      *              1             0             1 
    55 u_1_1_6      *              0             0             1 
    56 r_2_1_6      *              0             0             1 
    57 u_2_1_6      *              0             0             1 
    58 r_1_1_7      *              1             0             1 
    59 u_1_1_7      *              0             0             1 
    60 r_2_1_7      *              1             0             1 
    61 u_2_1_7      *              0             0             1 
    62 r_1_1_8      *              1             0             1 
    63 u_1_1_8      *              0             0             1 
    64 r_2_1_8      *              0             0             1 
    65 u_2_1_8      *              0             0             1 
    66 r_1_2_4      *              0             0             1 
    67 u_1_2_4      *              1             0             1 
    68 r_2_2_4      *              1             0             1 
    69 u_2_2_4      *              0             0             1 
    70 r_1_2_5      *              1             0             1 
    71 u_1_2_5      *              0             0             1 
    72 r_2_2_5      *              1             0             1 
    73 u_2_2_5      *              0             0             1 
    74 r_1_2_6      *              1             0             1 
    75 u_1_2_6      *              0             0             1 
    76 r_2_2_6      *              1             0             1 
    77 u_2_2_6      *              0             0             1 
    78 r_1_2_7      *              0             0             1 
    79 u_1_2_7      *              1             0             1 
    80 r_2_2_7      *              1             0             1 
    81 u_2_2_7      *              0             0             1 
    82 r_1_2_8      *              1             0             1 
    83 u_1_2_8      *              0             0             1 
    84 r_2_2_8      *              1             0             1 
    85 u_2_2_8      *              0             0             1 
    86 r_1_3_4      *              0             0             1 
    87 u_1_3_4      *              1             0             1 
    88 r_2_3_4      *              1             0             1 
    89 u_2_3_4      *              0             0             1 
    90 r_1_3_5      *              1             0             1 
    91 u_1_3_5      *              0             0             1 
    92 r_2_3_5      *              1             0             1 
    93 u_2_3_5      *              0             0             1 
    94 r_1_3_6      *              1             0             1 
    95 u_1_3_6      *              0             0             1 
    96 r_2_3_6      *              1             0             1 
    97 u_2_3_6      *              0             0             1 
    98 r_1_3_7      *              0             0             1 
    99 u_1_3_7      *              1             0             1 
   100 r_2_3_7      *              1             0             1 
   101 u_2_3_7      *              0             0             1 
   102 r_1_3_8      *              1             0             1 
   103 u_1_3_8      *              0             0             1 
   104 r_2_3_8      *              1             0             1 
   105 u_2_3_8      *              0             0             1 
   106 r_1_4_7      *              0             0             1 
   107 u_1_4_7      *              1             0             1 
   108 r_2_4_7      *              1             0             1 
   109 u_2_4_7      *              0             0             1 
   110 r_1_4_8      *              1             0             1 
   111 u_1_4_8      *              0             0             1 
   112 r_2_4_8      *              1             0             1 
   113 u_2_4_8      *              0             0             1 
   114 r_1_5_7      *              1             0             1 
   115 u_1_5_7      *              0             0             1 
   116 r_2_5_7      *              1             0             1 
   117 u_2_5_7      *              0             0             1 
   118 r_1_5_8      *              1             0             1 
   119 u_1_5_8      *              0             0             1 
   120 r_2_5_8      *              0             0             1 
   121 u_2_5_8      *              1             0             1 
   122 r_1_6_7      *              1             0             1 
   123 u_1_6_7      *              0             0             1 
   124 r_2_6_7      *              1             0             1 
   125 u_2_6_7      *              0             0             1 
   126 r_1_6_8      *              1             0             1 
   127 u_1_6_8      *              0             0             1 
   128 r_2_6_8      *              0             0             1 
   129 u_2_6_8      *              1             0             1 

Integer feasibility conditions:

KKT.PE: max.abs.err = 2.27e-13 on row 168
        max.rel.err = 5.67e-17 on row 168
        High quality

KKT.PB: max.abs.err = 0.00e+00 on row 0
        max.rel.err = 0.00e+00 on row 0
        High quality

End of output
